num_features = 48;
num_usage_limits = 4;
num_plans = 3;
num_addons = 0;

features = ["syncAcrossDevices","notes","offlineAccess","scanHadWrittenNotes","scanWhiteboards","scanReceipts","scanMore","webClipper","attachFilesToNotes","richFormatting","recordAudioNotes","toDoLists","annotateImages","applyTemplatesToNotes","annotatePdfs","createCustomTemplates","saveCustomTemplates","scanAndDigitalizeBusinessCardsToCreateContacts","forwardEmailsIntoEvernote","addRemindersToNotes","createOwnFilingSystem","searchNotes","connectWithSlack","connectWithTeams","connectWithGmail","searchTextInsideImages","searchTextInsideHandwrittenNotes","connectWithOutlook","searchTextInsideOfficeDocs","searchTextInsidePdfs","versionHistoryOfNotes","restoreNotesFromOlderVersions","shareNotesWithPeople","shareNotebooksWithPeople","setPermissionsForEdittingNotes","setPermissionsForEdittingNotebooks","setPermissionsForViewingNotes","setPermissionsForViewingNotebooks","sharedSpaces","twoStepVerification","forumSupport","emailSupport","chatSupport","centralizedAccountAdministration","userManagement","singleSignOn","activityHistory","businessDataOwnership"];
usage_limits = ["syncDevicesLimit","maximumNoteSize","globalMonthlyUploadLimit","monthlyUploadLimitByUser"];
plans = ["BASIC","PREMIUM","BUSINESS"];
addons = [];

plans_prices = [0,7.99,14.99];
addons_prices = [];

linked_features = array2d(USAGE_LIMITS, FEATURES, [
    % syncDevicesLimit
    1,0,0,0,0,0,0,0,0,0,0,0,0,0,0,0,0,0,0,0,0,0,0,0,0,0,0,0,0,0,0,0,0,0,0,0,0,0,0,0,0,0,0,0,0,0,0,0,
    % maximumNoteSize
    0,1,0,0,0,0,0,0,0,0,0,0,0,0,0,0,0,0,0,0,0,0,0,0,0,0,0,0,0,0,0,0,0,0,0,0,0,0,0,0,0,0,0,0,0,0,0,0,
    % globalMonthlyUploadLimit
    0,0,0,0,0,0,0,0,0,0,0,0,0,0,0,0,0,0,0,0,0,0,0,0,0,0,0,0,0,0,0,0,0,0,0,0,0,0,0,0,0,0,0,0,0,0,0,0,
    % monthlyUploadLimitByUser
    0,0,0,0,0,0,0,0,0,0,0,0,0,0,0,0,0,0,0,0,0,0,0,0,0,0,0,0,0,0,0,0,0,0,0,0,0,0,0,0,0,0,0,0,0,0,0,0
]);

plans_features = array2d(PLANS, FEATURES, [
    % BASIC
    1,1,1,1,1,1,1,1,1,1,1,1,1,1,0,0,0,0,0,1,1,1,1,1,1,0,0,0,0,0,0,0,1,1,1,1,1,1,0,1,1,0,0,0,0,0,0,0,
    % PREMIUM
    1,1,1,1,1,1,1,1,1,1,1,1,1,1,1,1,1,1,1,1,1,1,1,1,1,0,0,1,1,1,1,0,1,1,1,1,1,1,0,1,1,1,1,0,0,0,0,0,
    % BUSINESS
    1,1,1,1,1,1,1,1,1,1,1,1,1,1,1,1,1,1,1,1,1,1,1,1,1,0,0,1,1,1,1,0,1,1,1,1,1,1,1,1,1,1,1,1,1,1,1,1
]);
plans_usage_limits = array2d(PLANS, USAGE_LIMITS, [
    % BASIC
    2,25,60,0,
    % PREMIUM
    1000000,200,10240,0,
    % BUSINESS
    1000000,200,20480,2048
]);

addons_features = array2d(ADDONS, FEATURES, [
]);
addons_usage_limits = array2d(ADDONS, USAGE_LIMITS, [
]);
addons_usage_limits_extensions = array2d(ADDONS, USAGE_LIMITS, [
]);
addons_available_for = array2d(ADDONS, PLANS, [
]);
addons_depends_on = array2d(ADDONS, ADDONS, [
]);
